CMPL model generation - running

CMPL version: 1.11.0
Authors: Thomas Schleiff, Mike Steglich
Distributed under the GPLv3 

create model instance ...
write model instance ...
CMPL model generation - finished

Solver - running


Welcome to IBM(R) ILOG(R) CPLEX(R) Interactive Optimizer 12.7.1.0
  with Simplex, Mixed Integer & Barrier Optimizers
5725-A06 5725-A29 5724-Y48 5724-Y49 5724-Y54 5724-Y55 5655-Y21
Copyright IBM Corp. 1988, 2017.  All Rights Reserved.

Type 'help' for a list of available commands.
Type 'help' followed by a command name for more
information on commands.

CPLEX> Specified objective sense: MINIMIZE
Selected objective  name:  line[1]
Selected RHS        name:  RHS
Selected bound      name:  BOUND
Problem '/tmp/cmpl.T24635.mps' read.
Read time = 0.12 sec. (10.14 ticks)
CPLEX> CPXPARAM_Read_APIEncoding                        "UTF-8"
Tried aggregator 3 times.
MIP Presolve eliminated 23796 rows and 37168 columns.
MIP Presolve modified 425 coefficients.
Aggregator did 945 substitutions.
Reduced MIP has 3181 rows, 4342 columns, and 12844 nonzeros.
Reduced MIP has 4132 binaries, 0 generals, 0 SOSs, and 0 indicators.
Presolve time = 0.14 sec. (50.75 ticks)
Found incumbent of value 2464.236092 after 0.27 sec. (89.45 ticks)
Probing fixed 31 vars, tightened 0 bounds.
Probing time = 0.04 sec. (5.72 ticks)
Tried aggregator 1 time.
MIP Presolve eliminated 0 rows and 31 columns.
MIP Presolve modified 214 coefficients.
Reduced MIP has 3181 rows, 4311 columns, and 12782 nonzeros.
Reduced MIP has 4311 binaries, 0 generals, 0 SOSs, and 0 indicators.
Presolve time = 0.02 sec. (10.97 ticks)
Probing time = 0.02 sec. (2.87 ticks)
Clique table members: 7822.
MIP emphasis: balance optimality and feasibility.
MIP search method: dynamic search.
Parallel mode: none, using 1 thread.
Root relaxation solution time = 0.02 sec. (10.02 ticks)

        Nodes                                         Cuts/
   Node  Left     Objective  IInf  Best Integer    Best Bound    ItCnt     Gap

*     0+    0                         2464.2361       -0.0000           100.00%
*     0     0      integral     0      593.1961      593.1961      441    0.00%
Elapsed time = 0.40 sec. (128.99 ticks, tree = 0.00 MB, solutions = 2)

Root node processing (before b&c):
  Real time             =    0.40 sec. (130.53 ticks)
Sequential b&c:
  Real time             =    0.00 sec. (0.00 ticks)
                          ------------
Total (root+branch&cut) =    0.40 sec. (130.53 ticks)

Solution pool: 2 solutions saved.

MIP - Integer optimal solution:  Objective =  5.9319607400e+02
Solution time =    0.40 sec.  Iterations = 441  Nodes = 0
Deterministic time = 130.65 ticks  (326.05 ticks/sec)

CPLEX> Incumbent solution written to file '/tmp/cmpl.T24635.gsol'.
CPLEX> 
CMPL: Time used for model generation: 2 seconds
CMPL: Time used for solving the model: 1 seconds


Solution written to ASCII file: results/output_generated_conf_0.8/2016-10-03-5/fair-nonlinear.sol

Solver - finished
